
Gurobi 13.0.0 (linux64) logging started Thu Jan 15 08:30:46 2026

Set parameter LogFile to value "../experiments/network-n_50_s_1_rp_0-app_set-id_39_18_apps/submip_40_epr1_model_gurobi.log"
Set parameter TimeLimit to value 8.4182877931000257e+02
Gurobi Optimizer version 13.0.0 build v13.0.0rc1 (linux64 - "Ubuntu 24.04.3 LTS")

CPU model: Intel(R) Core(TM) Ultra 7 165H, instruction set [SSE2|AVX|AVX2]
Thread count: 22 physical cores, 22 logical processors, using up to 22 threads

Non-default parameters:
TimeLimit  8.4182877931000257e+02
LogToConsole  0

Academic license 2539022 - for non-commercial use only - registered to al___@studenti.unimi.it
Optimize a model with 32703 rows, 5850 columns and 73559 nonzeros (Min)
Model fingerprint: 0x56435286
Model has 5850 linear objective coefficients
Model has 164 quadratic constraints
Variable types: 0 continuous, 5850 integer (5850 binary)
Coefficient statistics:
  Matrix range     [1e+00, 9e+02]
  QMatrix range    [6e+01, 2e+02]
  Objective range  [1e+01, 2e+02]
  Bounds range     [1e+00, 1e+00]
  RHS range        [1e+00, 1e+09]
  QRHS range       [1e+02, 6e+02]

MIP start from previous solve did not produce a new incumbent solution
MIP start from previous solve violates constraint fixed_app_11_microservice_5 by 1.000000000

Presolve removed 32196 rows and 4759 columns
Presolve time: 0.11s
Presolved: 10118 rows, 10543 columns, 62432 nonzeros
Variable types: 0 continuous, 10543 integer (10543 binary)

Root relaxation: objective 4.653141e+03, 1674 iterations, 0.09 seconds (0.18 work units)

    Nodes    |    Current Node    |     Objective Bounds      |     Work
 Expl Unexpl |  Obj  Depth IntInf | Incumbent    BestBd   Gap | It/Node Time

     0     0 4653.14060    0  191          - 4653.14060      -     -    0s
     0     0 5014.22209    0  160          - 5014.22209      -     -    0s
     0     0 5033.83511    0  189          - 5033.83511      -     -    1s
     0     0 5035.93617    0  203          - 5035.93617      -     -    1s
     0     0 5079.89041    0  195          - 5079.89041      -     -    1s
     0     0 5099.80880    0  238          - 5099.80880      -     -    1s
     0     0 5101.01430    0  235          - 5101.01430      -     -    1s
     0     0 5137.38488    0  230          - 5137.38488      -     -    2s
     0     0 5137.40930    0  230          - 5137.40930      -     -    2s
     0     0 5137.40930    0  230          - 5137.40930      -     -    2s
     0     2 5137.73039    0  230          - 5137.73039      -     -    3s
   290   174 5169.83251   12  220          - 5158.19941      -   177    5s
   664   313 5212.94286   21  161          - 5167.88009      -   165   10s
  1427   422 5325.00239   15  152          - 5191.72190      -   158   15s
  2791   188 infeasible   21               - 5235.97338      -   154   20s

Cutting planes:
  Gomory: 2
  Lift-and-project: 4
  Cover: 39
  Clique: 22
  MIR: 41
  Knapsack: 15
  StrongCG: 28
  GUB cover: 10
  Zero half: 13
  RLT: 85
  Relax-and-lift: 7
  BQP: 10

Explored 3655 nodes (509212 simplex iterations) in 21.42 seconds (24.93 work units)
Thread count was 22 (of 22 available processors)

Solution count 0

Model is infeasible
Best objective -, best bound -, gap -

User-callback calls 10447, time in user-callback 0.02 sec
